p tdp 20 109
1 2
1 4
1 5
1 9
1 10
1 12
1 15
1 17
1 18
2 3
2 4
2 6
2 7
2 13
2 17
2 19
2 20
3 4
3 6
3 9
3 10
3 13
3 14
3 16
3 17
3 19
3 20
4 5
4 8
4 9
4 10
4 11
4 15
4 18
4 20
5 6
5 8
5 9
5 10
5 11
5 14
5 15
5 17
5 20
6 7
6 8
6 9
6 12
6 13
6 14
6 15
6 16
6 17
6 18
6 20
7 9
7 10
7 11
7 13
7 14
7 15
7 16
8 11
8 12
8 14
8 15
8 18
8 19
9 10
9 11
9 13
9 14
9 15
9 19
9 20
10 11
10 12
10 15
10 16
10 17
10 18
11 13
11 14
11 17
11 18
11 20
12 13
12 14
12 15
12 16
12 18
12 20
13 14
13 16
13 17
13 19
14 15
14 16
14 18
14 19
14 20
15 16
15 18
15 19
15 20
16 17
16 20
17 20
18 19
